WARNING: for repeatability, setting FPU to use double precision
============================[ Problem Statistics ]=============================
|                                                                             |
|  Number of variables:        898970                                         |
|  Number of clauses:         2560186                                         |
|  Parse time:                   0.60 s                                       |
|                                                                             |
c ============================[ Search Statistics ]==============================
c | Conflicts |          ORIGINAL         |          LEARNT          | Progress |
c |           |    Vars  Clauses Literals |    Limit  Clauses Lit/Cl |          |
c ===============================================================================
c Switched to VSIDS.
c Switched to LRB.
c Switched to VSIDS.
c Switched to LRB.
c Switched to VSIDS.
c Switched to LRB.
c Switched to VSIDS.
c Switched to LRB.
c Switched to VSIDS.
c Switched to LRB.
c Switched to VSIDS.
c Switched to LRB.
c Switched to VSIDS.
c Switched to LRB.
c Switched to VSIDS.
c Switched to LRB.
c Switched to VSIDS.
c Switched to LRB.
c Switched to VSIDS.
c Switched to LRB.
c Switched to VSIDS.
c Switched to LRB.
c Switched to VSIDS.
c Switched to LRB.
c Switched to VSIDS.
c Switched to LRB.
c Switched to VSIDS.
c Switched to LRB.
c Switched to VSIDS.
c Switched to LRB.
c Switched to VSIDS.
c Switched to LRB.
c Switched to VSIDS.
c Switched to LRB.
c ===============================================================================
restarts                  : 1528
conflicts                 : 411129         (115 /sec)
decisions                 : 9370252        (0.00 % random) (2614 /sec)
propagations              : 8780600457     (2449153 /sec)
conflict literals         : 362173984      (29.16 % deleted)

conflicts w/ DIP found    : 368796         (89.70 % of conflicts)
conflicts w/ dangerous DIP: 0              (0.00 % of conflicts)
conflicts w/ DIP-learning : 395            (0.10 % of conflicts)
decisions on ext vars     : 1139           (0.01 % of decisions)
total ext vars            : 234         
tried delete ext vars     : 4           
deleted ext vars          : 4           
max ext vars              : 230         

Memory used               : 1220.00 MB
CPU time                  : 3585.16 s
DIP computation time      : 12.6147 s (0.35 % of total time)
ER_sel time               : 1.22227 s
ER_add time               : 0.003372 s
ER_delC time              : 0 s
ER_delV time              : 0.001378 s
ER_sub time               : 2.11764 s
ER_stat time              : 0 s

INDETERMINATE
